38 18 
38 15 
32 2 
24 97 
75 23 
5 78 
35 33 
70 98 
79 56 
69 15 
31 46 
55 30 
70 94 
95 25 
39 76 
36 30 
47 74 
45 79 
28 22 
76 4 
97 34 
34 32 
67 4 
82 98 
60 52 
65 43 
98 20 
74 20 
15 69 
45 6 
98 33 
36 45 
7 34 
24 87 
56 52 
91 53 
38 25 
37 57 
81 20 
55 42 
72 73 
37 22 
93 11 
94 8 
33 39 
67 83 
24 55 
28 31 
89 4 
70 97 
